\* Source Pyomo model name=unknown *\

max 
x1:
-10.0 x2
-10.0 x3
-10.0 x4
-10.0 x5
-10.0 x6
-10.0 x7
-10.0 x8
-10.0 x9
-10.0 x10
-10.0 x11
-10.0 x12
-10.0 x13
-10.0 x14
-10.0 x15
-10.0 x16
-10.0 x17
-10.0 x18
-10.0 x19
-10.0 x20
-10.0 x21
-10.0 x22
-10.0 x23
-10.0 x24
-10.0 x25
-10.0 x26
+11.0 x27
+11.0 x28
+11.0 x29
+11.0 x30
+11.0 x31
+11.0 x32
+11.0 x33
+11.0 x34
+11.0 x35
+11.0 x36
+11.0 x37
+11.0 x38
+11.0 x39
+11.0 x40
+11.0 x41
+11.0 x42
+11.0 x43
+11.0 x44
+11.0 x45
+11.0 x46
+11.0 x47
+11.0 x48
+11.0 x49
+11.0 x50
+11.0 x51
-220.802324411751 x52
-220.802324411751 x53
-220.802324411751 x54
-220.802324411751 x55
-220.802324411751 x56
-220.802324411751 x57
-220.802324411751 x58
-220.802324411751 x59
-220.802324411751 x60
-220.802324411751 x61
-220.802324411751 x62
-220.802324411751 x63
-220.802324411751 x64
-220.802324411751 x65
-220.802324411751 x66
-220.802324411751 x67
-220.802324411751 x68
-220.802324411751 x69
-220.802324411751 x70
-220.802324411751 x71
-220.802324411751 x72
-220.802324411751 x73
-220.802324411751 x74
-220.802324411751 x75
-220.802324411751 x76
-220.802324411751 x77
-220.802324411751 x78
-220.802324411751 x79
-220.802324411751 x80
-220.802324411751 x81
-220.802324411751 x82
-220.802324411751 x83
-220.802324411751 x84
-220.802324411751 x85
-220.802324411751 x86
-220.802324411751 x87
-220.802324411751 x88
-220.802324411751 x89
-220.802324411751 x90
-220.802324411751 x91
-220.802324411751 x92

s.t.

c_e_x93_:
+1 x71
+1 x94
+1 x95
-1 x96
= 0

c_e_x97_:
+1 x60
-1 x94
+1 x98
+1 x99
= 0

c_e_x100_:
+1 x55
-1 x98
+1 x101
+1 x102
= 0

c_e_x103_:
+1 x54
-1 x101
+1 x104
+1 x105
= 0

c_e_x106_:
+1 x77
-1 x104
+1 x107
+1 x108
= 0

c_e_x109_:
+1 x91
-1 x107
+1 x110
+1 x111
= 0

c_e_x112_:
+1 x70
-1 x88
-1 x110
+1 x113
+1 x114
= 0

c_e_x115_:
-1 x59
+1 x69
-1 x113
+1 x116
+1 x117
= 0

c_e_x118_:
-1 x67
+1 x73
-1 x116
+1 x119
+1 x120
= 0

c_e_x121_:
+1 x53
-1 x74
-1 x119
+1 x122
+1 x123
= 0

c_e_x124_:
-1 x63
+1 x90
-1 x122
+1 x125
+1 x126
= 0

c_e_x127_:
+1 x75
-1 x85
-1 x125
+1 x128
+1 x129
= 0

c_e_x130_:
-1 x57
+1 x65
-1 x128
+1 x131
+1 x132
= 0

c_e_x133_:
-1 x61
+1 x86
-1 x131
+1 x134
+1 x135
= 0

c_e_x136_:
-1 x76
+1 x79
-1 x134
+1 x137
+1 x138
= 0

c_e_x139_:
-1 x58
+1 x62
-1 x137
+1 x140
+1 x141
= 0

c_e_x142_:
+1 x68
-1 x84
-1 x140
+1 x143
+1 x144
= 0

c_e_x145_:
+1 x64
-1 x87
-1 x143
+1 x146
+1 x147
= 0

c_e_x148_:
-1 x83
+1 x92
-1 x146
+1 x149
+1 x150
= 0

c_e_x151_:
-1 x66
+1 x81
-1 x149
+1 x152
+1 x153
= 0

c_e_x154_:
+1 x52
-1 x56
-1 x152
+1 x155
+1 x156
= 0

c_e_x157_:
-1 x72
+1 x89
-1 x155
+1 x158
+1 x159
= 0

c_e_x160_:
-1 x78
-1 x158
+1 x161
+1 x162
= 0

c_e_x163_:
-1 x82
-1 x161
+1 x164
+1 x165
= 0

c_e_x166_:
-1 x80
-1 x164
+1 x167
= 0

c_e_x168_:
-1 x71
+1 x88
+1 x169
+1 x170
= 0

c_e_x171_:
+1 x59
-1 x60
-1 x169
+1 x172
+1 x173
= 0

c_e_x174_:
-1 x55
+1 x67
-1 x172
+1 x175
+1 x176
= 0

c_e_x177_:
-1 x54
+1 x74
-1 x175
+1 x178
+1 x179
= 0

c_e_x180_:
+1 x63
-1 x77
-1 x178
+1 x181
+1 x182
= 0

c_e_x183_:
+1 x85
-1 x91
-1 x181
+1 x184
+1 x185
= 0

c_e_x186_:
+1 x57
-1 x70
-1 x184
+1 x187
+1 x188
= 0

c_e_x189_:
+1 x61
-1 x69
-1 x187
+1 x190
+1 x191
= 0

c_e_x192_:
-1 x73
+1 x76
-1 x190
+1 x193
+1 x194
= 0

c_e_x195_:
-1 x53
+1 x58
-1 x193
+1 x196
+1 x197
= 0

c_e_x198_:
+1 x84
-1 x90
-1 x196
+1 x199
+1 x200
= 0

c_e_x201_:
-1 x75
+1 x87
-1 x199
+1 x202
+1 x203
= 0

c_e_x204_:
-1 x65
+1 x83
-1 x202
+1 x205
+1 x206
= 0

c_e_x207_:
+1 x66
-1 x86
-1 x205
+1 x208
+1 x209
= 0

c_e_x210_:
+1 x56
-1 x79
-1 x208
+1 x211
+1 x212
= 0

c_e_x213_:
-1 x62
+1 x72
-1 x211
+1 x214
+1 x215
= 0

c_e_x216_:
-1 x68
+1 x78
-1 x214
+1 x217
+1 x218
= 0

c_e_x219_:
-1 x64
+1 x82
-1 x217
+1 x220
+1 x221
= 0

c_e_x222_:
+1 x80
-1 x92
-1 x220
+1 x223
+1 x224
= 0

c_e_x225_:
-1 x81
-1 x223
+1 x226
+1 x227
= 0

c_e_x228_:
-1 x52
-1 x226
+1 x229
+1 x230
= 0

c_e_x231_:
-1 x89
-1 x229
+1 x232
= 0

c_e_x233_:
+1 x96
+1 x234
= 1

c_e_x235_:
+1 x95
+1 x99
+1 x102
+1 x105
+1 x108
+1 x111
+1 x114
+1 x117
+1 x120
+1 x123
+1 x126
+1 x129
+1 x132
+1 x135
+1 x138
+1 x141
+1 x144
+1 x147
+1 x150
+1 x153
+1 x156
+1 x159
+1 x162
+1 x165
+1 x167
+1 x170
+1 x173
+1 x176
+1 x179
+1 x182
+1 x185
+1 x188
+1 x191
+1 x194
+1 x197
+1 x200
+1 x203
+1 x206
+1 x209
+1 x212
+1 x215
+1 x218
+1 x221
+1 x224
+1 x227
+1 x230
+1 x232
+1 x234
= 1

c_e_x236_:
+1 x2
+1 x237
-1 x238
= 0

c_e_x239_:
+1 x3
-1 x237
+1 x240
-1 x241
= 0

c_e_x242_:
+1 x4
-1 x240
+1 x243
-1 x244
= 0

c_e_x245_:
+1 x5
-1 x243
+1 x246
-1 x247
= 0

c_e_x248_:
+1 x6
-1 x246
+1 x249
-1 x250
= 0

c_e_x251_:
+1 x7
-1 x249
+1 x252
-1 x253
= 0

c_e_x254_:
+1 x8
-1 x252
+1 x255
-1 x256
= 0

c_e_x257_:
+1 x9
-1 x255
+1 x258
-1 x259
= 0

c_e_x260_:
+1 x10
-1 x258
+1 x261
-1 x262
= 0

c_e_x263_:
+1 x11
-1 x261
+1 x264
-1 x265
= 0

c_e_x266_:
+1 x12
-1 x264
+1 x267
-1 x268
= 0

c_e_x269_:
+1 x13
-1 x267
+1 x270
-1 x271
= 0

c_e_x272_:
+1 x14
-1 x270
+1 x273
-1 x274
= 0

c_e_x275_:
+1 x15
-1 x273
+1 x276
-1 x277
= 0

c_e_x278_:
+1 x16
-1 x276
+1 x279
-1 x280
= 0

c_e_x281_:
+1 x17
-1 x279
+1 x282
-1 x283
= 0

c_e_x284_:
+1 x18
-1 x282
+1 x285
-1 x286
= 0

c_e_x287_:
+1 x19
-1 x285
+1 x288
-1 x289
= 0

c_e_x290_:
+1 x20
-1 x288
+1 x291
-1 x292
= 0

c_e_x293_:
+1 x21
-1 x291
+1 x294
-1 x295
= 0

c_e_x296_:
+1 x22
-1 x294
+1 x297
-1 x298
= 0

c_e_x299_:
+1 x23
-1 x297
+1 x300
-1 x301
= 0

c_e_x302_:
+1 x24
-1 x300
+1 x303
-1 x304
= 0

c_e_x305_:
+1 x25
-1 x303
+1 x306
-1 x307
= 0

c_e_x308_:
+1 x26
-1 x306
+1 x309
-1 x310
= 0

c_e_x311_:
-1 x27
+1 x312
+1 x313
= 351.0

c_e_x314_:
-1 x28
-1 x312
+1 x315
+1 x316
= 0

c_e_x317_:
-1 x29
-1 x315
+1 x318
+1 x319
= 0

c_e_x320_:
-1 x30
-1 x318
+1 x321
+1 x322
= 0

c_e_x323_:
-1 x31
-1 x321
+1 x324
+1 x325
= 0

c_e_x326_:
-1 x32
-1 x324
+1 x327
+1 x328
= 0

c_e_x329_:
-1 x33
-1 x327
+1 x330
+1 x331
= 0

c_e_x332_:
-1 x34
-1 x330
+1 x333
+1 x334
= 0

c_e_x335_:
-1 x35
-1 x333
+1 x336
+1 x337
= 0

c_e_x338_:
-1 x36
-1 x336
+1 x339
+1 x340
= 0

c_e_x341_:
-1 x37
-1 x339
+1 x342
+1 x343
= 0

c_e_x344_:
-1 x38
-1 x342
+1 x345
+1 x346
= 0

c_e_x347_:
-1 x39
-1 x345
+1 x348
+1 x349
= 0

c_e_x350_:
-1 x40
-1 x348
+1 x351
+1 x352
= 0

c_e_x353_:
-1 x41
-1 x351
+1 x354
+1 x355
= 0

c_e_x356_:
-1 x42
-1 x354
+1 x357
+1 x358
= 0

c_e_x359_:
-1 x43
-1 x357
+1 x360
+1 x361
= 0

c_e_x362_:
-1 x44
-1 x360
+1 x363
+1 x364
= 0

c_e_x365_:
-1 x45
-1 x363
+1 x366
+1 x367
= 0

c_e_x368_:
-1 x46
-1 x366
+1 x369
+1 x370
= 0

c_e_x371_:
-1 x47
-1 x369
+1 x372
+1 x373
= 0

c_e_x374_:
-1 x48
-1 x372
+1 x375
+1 x376
= 0

c_e_x377_:
-1 x49
-1 x375
+1 x378
+1 x379
= 0

c_e_x380_:
-1 x50
-1 x378
+1 x381
+1 x382
= 0

c_e_x383_:
-1 x51
-1 x381
+1 x384
+1 x385
= 0

c_e_x386_:
-1 x2
+1 x27
+1 x387
= 0

c_e_x388_:
-1 x3
+1 x28
-1 x387
+1 x389
= 0

c_e_x390_:
-1 x4
+1 x29
-1 x389
+1 x391
= 0

c_e_x392_:
-1 x5
+1 x30
-1 x391
+1 x393
= 0

c_e_x394_:
-1 x6
+1 x31
-1 x393
+1 x395
= 0

c_e_x396_:
-1 x7
+1 x32
-1 x395
+1 x397
= 0

c_e_x398_:
-1 x8
+1 x33
-1 x397
+1 x399
= 0

c_e_x400_:
-1 x9
+1 x34
-1 x399
+1 x401
= 0

c_e_x402_:
-1 x10
+1 x35
-1 x401
+1 x403
= 0

c_e_x404_:
-1 x11
+1 x36
-1 x403
+1 x405
= 0

c_e_x406_:
-1 x12
+1 x37
-1 x405
+1 x407
= 0

c_e_x408_:
-1 x13
+1 x38
-1 x407
+1 x409
= 0

c_e_x410_:
-1 x14
+1 x39
-1 x409
+1 x411
= 0

c_e_x412_:
-1 x15
+1 x40
-1 x411
+1 x413
= 0

c_e_x414_:
-1 x16
+1 x41
-1 x413
+1 x415
= 0

c_e_x416_:
-1 x17
+1 x42
-1 x415
+1 x417
= 0

c_e_x418_:
-1 x18
+1 x43
-1 x417
+1 x419
= 0

c_e_x420_:
-1 x19
+1 x44
-1 x419
+1 x421
= 0

c_e_x422_:
-1 x20
+1 x45
-1 x421
+1 x423
= 0

c_e_x424_:
-1 x21
+1 x46
-1 x423
+1 x425
= 0

c_e_x426_:
-1 x22
+1 x47
-1 x425
+1 x427
= 0

c_e_x428_:
-1 x23
+1 x48
-1 x427
+1 x429
= 0

c_e_x430_:
-1 x24
+1 x49
-1 x429
+1 x431
= 0

c_e_x432_:
-1 x25
+1 x50
-1 x431
+1 x433
= 0

c_e_x434_:
-1 x26
+1 x51
-1 x433
+1 x435
= 0

c_u_x436_:
+1 x437
<= 1

c_u_x438_:
+1 x439
<= 1

c_u_x440_:
+1 x441
<= 1

c_u_x442_:
+1 x443
<= 1

c_u_x444_:
+1 x445
<= 1

c_u_x446_:
+1 x447
<= 1

c_u_x448_:
+1 x449
<= 1

c_u_x450_:
+1 x451
<= 1

c_u_x452_:
+1 x453
<= 1

c_u_x454_:
+1 x455
<= 1

c_u_x456_:
+1 x457
<= 1

c_u_x458_:
+1 x459
<= 1

c_u_x460_:
+1 x461
<= 1

c_u_x462_:
+1 x463
<= 1

c_u_x464_:
+1 x465
<= 1

c_u_x466_:
+1 x467
<= 1

c_u_x468_:
+1 x469
<= 1

c_u_x470_:
+1 x471
<= 1

c_u_x472_:
+1 x473
<= 1

c_u_x474_:
+1 x475
<= 1

c_u_x476_:
+1 x477
<= 1

c_u_x478_:
+1 x479
<= 1

c_u_x480_:
+1 x481
<= 1

c_u_x482_:
+1 x483
<= 1

c_u_x484_:
+1 x485
<= 1

c_u_x486_:
+1 x487
<= 1

c_u_x488_:
+1 x489
<= 1

c_u_x490_:
+1 x491
<= 1

c_u_x492_:
+1 x493
<= 1

c_u_x494_:
+1 x495
<= 1

c_u_x496_:
+1 x497
<= 1

c_u_x498_:
+1 x499
<= 1

c_u_x500_:
+1 x501
<= 1

c_u_x502_:
+1 x503
<= 1

c_u_x504_:
+1 x505
<= 1

c_u_x506_:
+1 x507
<= 1

c_u_x508_:
+1 x509
<= 1

c_u_x510_:
+1 x511
<= 1

c_u_x512_:
+1 x513
<= 1

c_u_x514_:
+1 x515
<= 1

c_u_x516_:
+1 x517
<= 1

c_u_x518_:
+1 x519
<= 1

c_u_x520_:
+1 x521
<= 1

c_u_x522_:
+1 x523
<= 1

c_u_x524_:
+1 x525
<= 1

c_u_x526_:
+1 x527
<= 1

c_u_x528_:
+1 x529
<= 1

c_u_x530_:
+1 x531
<= 1

c_u_x532_:
+1 x533
<= 1

c_u_x534_:
+1 x535
<= 1

c_u_x536_:
-1 x96
+1 x437
<= 0

c_u_x537_:
-1 x94
+1 x439
<= 0

c_u_x538_:
-1 x98
+1 x441
<= 0

c_u_x539_:
-1 x101
+1 x443
<= 0

c_u_x540_:
-1 x104
+1 x445
<= 0

c_u_x541_:
-1 x107
+1 x447
<= 0

c_u_x542_:
-1 x88
-1 x110
+1 x449
<= 0

c_u_x543_:
-1 x59
-1 x113
+1 x451
<= 0

c_u_x544_:
-1 x67
-1 x116
+1 x453
<= 0

c_u_x545_:
-1 x74
-1 x119
+1 x455
<= 0

c_u_x546_:
-1 x63
-1 x122
+1 x457
<= 0

c_u_x547_:
-1 x85
-1 x125
+1 x459
<= 0

c_u_x548_:
-1 x57
-1 x128
+1 x461
<= 0

c_u_x549_:
-1 x61
-1 x131
+1 x463
<= 0

c_u_x550_:
-1 x76
-1 x134
+1 x465
<= 0

c_u_x551_:
-1 x58
-1 x137
+1 x467
<= 0

c_u_x552_:
-1 x84
-1 x140
+1 x469
<= 0

c_u_x553_:
-1 x87
-1 x143
+1 x471
<= 0

c_u_x554_:
-1 x83
-1 x146
+1 x473
<= 0

c_u_x555_:
-1 x66
-1 x149
+1 x475
<= 0

c_u_x556_:
-1 x56
-1 x152
+1 x477
<= 0

c_u_x557_:
-1 x72
-1 x155
+1 x479
<= 0

c_u_x558_:
-1 x78
-1 x158
+1 x481
<= 0

c_u_x559_:
-1 x82
-1 x161
+1 x483
<= 0

c_u_x560_:
-1 x80
-1 x164
+1 x485
<= 0

c_u_x561_:
+1 x487
<= 0

c_u_x562_:
+1 x489
<= 0

c_u_x563_:
+1 x491
<= 0

c_u_x564_:
-1 x71
+1 x493
<= 0

c_u_x565_:
-1 x60
-1 x169
+1 x495
<= 0

c_u_x566_:
-1 x55
-1 x172
+1 x497
<= 0

c_u_x567_:
-1 x54
-1 x175
+1 x499
<= 0

c_u_x568_:
-1 x77
-1 x178
+1 x501
<= 0

c_u_x569_:
-1 x91
-1 x181
+1 x503
<= 0

c_u_x570_:
-1 x70
-1 x184
+1 x505
<= 0

c_u_x571_:
-1 x69
-1 x187
+1 x507
<= 0

c_u_x572_:
-1 x73
-1 x190
+1 x509
<= 0

c_u_x573_:
-1 x53
-1 x193
+1 x511
<= 0

c_u_x574_:
-1 x90
-1 x196
+1 x513
<= 0

c_u_x575_:
-1 x75
-1 x199
+1 x515
<= 0

c_u_x576_:
-1 x65
-1 x202
+1 x517
<= 0

c_u_x577_:
-1 x86
-1 x205
+1 x519
<= 0

c_u_x578_:
-1 x79
-1 x208
+1 x521
<= 0

c_u_x579_:
-1 x62
-1 x211
+1 x523
<= 0

c_u_x580_:
-1 x68
-1 x214
+1 x525
<= 0

c_u_x581_:
-1 x64
-1 x217
+1 x527
<= 0

c_u_x582_:
-1 x92
-1 x220
+1 x529
<= 0

c_u_x583_:
-1 x81
-1 x223
+1 x531
<= 0

c_u_x584_:
-1 x52
-1 x226
+1 x533
<= 0

c_u_x585_:
-1 x89
-1 x229
+1 x535
<= 0

c_u_x586_:
-1 x2
+35.0 x437
<= 0

c_u_x587_:
-1 x3
+35.0 x439
<= 0

c_u_x588_:
-1 x4
+35.0 x441
<= 0

c_u_x589_:
-1 x5
+35.0 x443
<= 0

c_u_x590_:
-1 x6
+35.0 x445
<= 0

c_u_x591_:
-1 x7
+35.0 x447
<= 0

c_u_x592_:
-1 x8
+35.0 x449
<= 0

c_u_x593_:
-1 x9
+35.0 x451
<= 0

c_u_x594_:
-1 x10
+35.0 x453
<= 0

c_u_x595_:
-1 x11
+35.0 x455
<= 0

c_u_x596_:
-1 x12
+35.0 x457
<= 0

c_u_x597_:
-1 x13
+35.0 x459
<= 0

c_u_x598_:
-1 x14
+35.0 x461
<= 0

c_u_x599_:
-1 x15
+35.0 x463
<= 0

c_u_x600_:
-1 x16
+35.0 x465
<= 0

c_u_x601_:
-1 x17
+35.0 x467
<= 0

c_u_x602_:
-1 x18
+35.0 x469
<= 0

c_u_x603_:
-1 x19
+35.0 x471
<= 0

c_u_x604_:
-1 x20
+35.0 x473
<= 0

c_u_x605_:
-1 x21
+35.0 x475
<= 0

c_u_x606_:
-1 x22
+35.0 x477
<= 0

c_u_x607_:
-1 x23
+35.0 x479
<= 0

c_u_x608_:
-1 x24
+35.0 x481
<= 0

c_u_x609_:
-1 x25
+35.0 x483
<= 0

c_u_x610_:
-1 x26
+35.0 x485
<= 0

c_u_x611_:
-1 x27
+50.0 x487
<= 0

c_u_x612_:
-1 x28
+50.0 x489
<= 0

c_u_x613_:
-1 x29
+50.0 x491
<= 0

c_u_x614_:
-1 x30
+50.0 x493
<= 0

c_u_x615_:
-1 x31
+50.0 x495
<= 0

c_u_x616_:
-1 x32
+50.0 x497
<= 0

c_u_x617_:
-1 x33
+50.0 x499
<= 0

c_u_x618_:
-1 x34
+50.0 x501
<= 0

c_u_x619_:
-1 x35
+50.0 x503
<= 0

c_u_x620_:
-1 x36
+50.0 x505
<= 0

c_u_x621_:
-1 x37
+50.0 x507
<= 0

c_u_x622_:
-1 x38
+50.0 x509
<= 0

c_u_x623_:
-1 x39
+50.0 x511
<= 0

c_u_x624_:
-1 x40
+50.0 x513
<= 0

c_u_x625_:
-1 x41
+50.0 x515
<= 0

c_u_x626_:
-1 x42
+50.0 x517
<= 0

c_u_x627_:
-1 x43
+50.0 x519
<= 0

c_u_x628_:
-1 x44
+50.0 x521
<= 0

c_u_x629_:
-1 x45
+50.0 x523
<= 0

c_u_x630_:
-1 x46
+50.0 x525
<= 0

c_u_x631_:
-1 x47
+50.0 x527
<= 0

c_u_x632_:
-1 x48
+50.0 x529
<= 0

c_u_x633_:
-1 x49
+50.0 x531
<= 0

c_u_x634_:
-1 x50
+50.0 x533
<= 0

c_u_x635_:
-1 x51
+50.0 x535
<= 0

c_u_x636_:
+1 x2
-322.0 x437
<= 0

c_u_x637_:
+1 x3
-322.0 x439
<= 0

c_u_x638_:
+1 x4
-322.0 x441
<= 0

c_u_x639_:
+1 x5
-322.0 x443
<= 0

c_u_x640_:
+1 x6
-322.0 x445
<= 0

c_u_x641_:
+1 x7
-322.0 x447
<= 0

c_u_x642_:
+1 x8
-322.0 x449
<= 0

c_u_x643_:
+1 x9
-322.0 x451
<= 0

c_u_x644_:
+1 x10
-322.0 x453
<= 0

c_u_x645_:
+1 x11
-322.0 x455
<= 0

c_u_x646_:
+1 x12
-322.0 x457
<= 0

c_u_x647_:
+1 x13
-322.0 x459
<= 0

c_u_x648_:
+1 x14
-322.0 x461
<= 0

c_u_x649_:
+1 x15
-322.0 x463
<= 0

c_u_x650_:
+1 x16
-322.0 x465
<= 0

c_u_x651_:
+1 x17
-322.0 x467
<= 0

c_u_x652_:
+1 x18
-322.0 x469
<= 0

c_u_x653_:
+1 x19
-322.0 x471
<= 0

c_u_x654_:
+1 x20
-322.0 x473
<= 0

c_u_x655_:
+1 x21
-322.0 x475
<= 0

c_u_x656_:
+1 x22
-322.0 x477
<= 0

c_u_x657_:
+1 x23
-322.0 x479
<= 0

c_u_x658_:
+1 x24
-322.0 x481
<= 0

c_u_x659_:
+1 x25
-322.0 x483
<= 0

c_u_x660_:
+1 x26
-322.0 x485
<= 0

c_u_x661_:
+1 x27
-390.0 x487
<= 0

c_u_x662_:
+1 x28
-390.0 x489
<= 0

c_u_x663_:
+1 x29
-390.0 x491
<= 0

c_u_x664_:
+1 x30
-390.0 x493
<= 0

c_u_x665_:
+1 x31
-390.0 x495
<= 0

c_u_x666_:
+1 x32
-390.0 x497
<= 0

c_u_x667_:
+1 x33
-390.0 x499
<= 0

c_u_x668_:
+1 x34
-390.0 x501
<= 0

c_u_x669_:
+1 x35
-390.0 x503
<= 0

c_u_x670_:
+1 x36
-390.0 x505
<= 0

c_u_x671_:
+1 x37
-390.0 x507
<= 0

c_u_x672_:
+1 x38
-390.0 x509
<= 0

c_u_x673_:
+1 x39
-390.0 x511
<= 0

c_u_x674_:
+1 x40
-390.0 x513
<= 0

c_u_x675_:
+1 x41
-390.0 x515
<= 0

c_u_x676_:
+1 x42
-390.0 x517
<= 0

c_u_x677_:
+1 x43
-390.0 x519
<= 0

c_u_x678_:
+1 x44
-390.0 x521
<= 0

c_u_x679_:
+1 x45
-390.0 x523
<= 0

c_u_x680_:
+1 x46
-390.0 x525
<= 0

c_u_x681_:
+1 x47
-390.0 x527
<= 0

c_u_x682_:
+1 x48
-390.0 x529
<= 0

c_u_x683_:
+1 x49
-390.0 x531
<= 0

c_u_x684_:
+1 x50
-390.0 x533
<= 0

c_u_x685_:
+1 x51
-390.0 x535
<= 0

c_l_x686_:
+1 x238
>= 33.0

c_l_x687_:
+1 x241
>= 33.0

c_l_x688_:
+1 x244
>= 33.0

c_l_x689_:
+1 x247
>= 33.0

c_l_x690_:
+1 x250
>= 33.0

c_l_x691_:
+1 x253
>= 33.0

c_l_x692_:
+1 x256
>= 33.0

c_l_x693_:
+1 x259
>= 33.0

c_l_x694_:
+1 x262
>= 33.0

c_l_x695_:
+1 x265
>= 33.0

c_l_x696_:
+1 x268
>= 33.0

c_l_x697_:
+1 x271
>= 33.0

c_l_x698_:
+1 x274
>= 33.0

c_l_x699_:
+1 x277
>= 33.0

c_l_x700_:
+1 x280
>= 33.0

c_l_x701_:
+1 x283
>= 33.0

c_l_x702_:
+1 x286
>= 33.0

c_l_x703_:
+1 x289
>= 33.0

c_l_x704_:
+1 x292
>= 33.0

c_l_x705_:
+1 x295
>= 33.0

c_l_x706_:
+1 x298
>= 33.0

c_l_x707_:
+1 x301
>= 33.0

c_l_x708_:
+1 x304
>= 33.0

c_l_x709_:
+1 x307
>= 33.0

c_l_x710_:
+1 x310
>= 33.0

c_l_x711_:
+1 x313
>= 39.0

c_l_x712_:
+1 x316
>= 39.0

c_l_x713_:
+1 x319
>= 39.0

c_l_x714_:
+1 x322
>= 39.0

c_l_x715_:
+1 x325
>= 39.0

c_l_x716_:
+1 x328
>= 39.0

c_l_x717_:
+1 x331
>= 39.0

c_l_x718_:
+1 x334
>= 39.0

c_l_x719_:
+1 x337
>= 39.0

c_l_x720_:
+1 x340
>= 39.0

c_l_x721_:
+1 x343
>= 39.0

c_l_x722_:
+1 x346
>= 39.0

c_l_x723_:
+1 x349
>= 39.0

c_l_x724_:
+1 x352
>= 39.0

c_l_x725_:
+1 x355
>= 39.0

c_l_x726_:
+1 x358
>= 39.0

c_l_x727_:
+1 x361
>= 39.0

c_l_x728_:
+1 x364
>= 39.0

c_l_x729_:
+1 x367
>= 39.0

c_l_x730_:
+1 x370
>= 39.0

c_l_x731_:
+1 x373
>= 39.0

c_l_x732_:
+1 x376
>= 39.0

c_l_x733_:
+1 x379
>= 39.0

c_l_x734_:
+1 x382
>= 39.0

c_l_x735_:
+1 x385
>= 39.0

c_u_x736_:
+1 x238
<= 99.0

c_u_x737_:
+1 x241
<= 99.0

c_u_x738_:
+1 x244
<= 99.0

c_u_x739_:
+1 x247
<= 99.0

c_u_x740_:
+1 x250
<= 99.0

c_u_x741_:
+1 x253
<= 99.0

c_u_x742_:
+1 x256
<= 99.0

c_u_x743_:
+1 x259
<= 99.0

c_u_x744_:
+1 x262
<= 99.0

c_u_x745_:
+1 x265
<= 99.0

c_u_x746_:
+1 x268
<= 99.0

c_u_x747_:
+1 x271
<= 99.0

c_u_x748_:
+1 x274
<= 99.0

c_u_x749_:
+1 x277
<= 99.0

c_u_x750_:
+1 x280
<= 99.0

c_u_x751_:
+1 x283
<= 99.0

c_u_x752_:
+1 x286
<= 99.0

c_u_x753_:
+1 x289
<= 99.0

c_u_x754_:
+1 x292
<= 99.0

c_u_x755_:
+1 x295
<= 99.0

c_u_x756_:
+1 x298
<= 99.0

c_u_x757_:
+1 x301
<= 99.0

c_u_x758_:
+1 x304
<= 99.0

c_u_x759_:
+1 x307
<= 99.0

c_u_x760_:
+1 x310
<= 99.0

c_u_x761_:
+1 x313
<= 39.0

c_u_x762_:
+1 x316
<= 39.0

c_u_x763_:
+1 x319
<= 39.0

c_u_x764_:
+1 x322
<= 39.0

c_u_x765_:
+1 x325
<= 39.0

c_u_x766_:
+1 x328
<= 39.0

c_u_x767_:
+1 x331
<= 39.0

c_u_x768_:
+1 x334
<= 39.0

c_u_x769_:
+1 x337
<= 39.0

c_u_x770_:
+1 x340
<= 39.0

c_u_x771_:
+1 x343
<= 39.0

c_u_x772_:
+1 x346
<= 39.0

c_u_x773_:
+1 x349
<= 39.0

c_u_x774_:
+1 x352
<= 39.0

c_u_x775_:
+1 x355
<= 39.0

c_u_x776_:
+1 x358
<= 39.0

c_u_x777_:
+1 x361
<= 39.0

c_u_x778_:
+1 x364
<= 39.0

c_u_x779_:
+1 x367
<= 39.0

c_u_x780_:
+1 x370
<= 39.0

c_u_x781_:
+1 x373
<= 39.0

c_u_x782_:
+1 x376
<= 39.0

c_u_x783_:
+1 x379
<= 39.0

c_u_x784_:
+1 x382
<= 39.0

c_u_x785_:
+1 x385
<= 39.0

c_l_x786_:
+1 x237
>= 0

c_l_x787_:
+1 x240
>= 0

c_l_x788_:
+1 x243
>= 0

c_l_x789_:
+1 x246
>= 0

c_l_x790_:
+1 x249
>= 0

c_l_x791_:
+1 x252
>= 0

c_l_x792_:
+1 x255
>= 0

c_l_x793_:
+1 x258
>= 0

c_l_x794_:
+1 x261
>= 0

c_l_x795_:
+1 x264
>= 0

c_l_x796_:
+1 x267
>= 0

c_l_x797_:
+1 x270
>= 0

c_l_x798_:
+1 x273
>= 0

c_l_x799_:
+1 x276
>= 0

c_l_x800_:
+1 x279
>= 0

c_l_x801_:
+1 x282
>= 0

c_l_x802_:
+1 x285
>= 0

c_l_x803_:
+1 x288
>= 0

c_l_x804_:
+1 x291
>= 0

c_l_x805_:
+1 x294
>= 0

c_l_x806_:
+1 x297
>= 0

c_l_x807_:
+1 x300
>= 0

c_l_x808_:
+1 x303
>= 0

c_l_x809_:
+1 x306
>= 0

c_l_x810_:
+1 x309
>= 0

c_l_x811_:
+1 x312
>= 0

c_l_x812_:
+1 x315
>= 0

c_l_x813_:
+1 x318
>= 0

c_l_x814_:
+1 x321
>= 0

c_l_x815_:
+1 x324
>= 0

c_l_x816_:
+1 x327
>= 0

c_l_x817_:
+1 x330
>= 0

c_l_x818_:
+1 x333
>= 0

c_l_x819_:
+1 x336
>= 0

c_l_x820_:
+1 x339
>= 0

c_l_x821_:
+1 x342
>= 0

c_l_x822_:
+1 x345
>= 0

c_l_x823_:
+1 x348
>= 0

c_l_x824_:
+1 x351
>= 0

c_l_x825_:
+1 x354
>= 0

c_l_x826_:
+1 x357
>= 0

c_l_x827_:
+1 x360
>= 0

c_l_x828_:
+1 x363
>= 0

c_l_x829_:
+1 x366
>= 0

c_l_x830_:
+1 x369
>= 0

c_l_x831_:
+1 x372
>= 0

c_l_x832_:
+1 x375
>= 0

c_l_x833_:
+1 x378
>= 0

c_l_x834_:
+1 x381
>= 0

c_l_x835_:
+1 x384
>= 0

c_u_x836_:
+1 x237
<= 594.0

c_u_x837_:
+1 x240
<= 594.0

c_u_x838_:
+1 x243
<= 594.0

c_u_x839_:
+1 x246
<= 594.0

c_u_x840_:
+1 x249
<= 594.0

c_u_x841_:
+1 x252
<= 594.0

c_u_x842_:
+1 x255
<= 594.0

c_u_x843_:
+1 x258
<= 594.0

c_u_x844_:
+1 x261
<= 594.0

c_u_x845_:
+1 x264
<= 594.0

c_u_x846_:
+1 x267
<= 594.0

c_u_x847_:
+1 x270
<= 594.0

c_u_x848_:
+1 x273
<= 594.0

c_u_x849_:
+1 x276
<= 594.0

c_u_x850_:
+1 x279
<= 594.0

c_u_x851_:
+1 x282
<= 594.0

c_u_x852_:
+1 x285
<= 594.0

c_u_x853_:
+1 x288
<= 594.0

c_u_x854_:
+1 x291
<= 594.0

c_u_x855_:
+1 x294
<= 594.0

c_u_x856_:
+1 x297
<= 594.0

c_u_x857_:
+1 x300
<= 594.0

c_u_x858_:
+1 x303
<= 594.0

c_u_x859_:
+1 x306
<= 594.0

c_u_x860_:
+1 x309
<= 594.0

c_u_x861_:
+1 x312
<= 351.0

c_u_x862_:
+1 x315
<= 351.0

c_u_x863_:
+1 x318
<= 351.0

c_u_x864_:
+1 x321
<= 351.0

c_u_x865_:
+1 x324
<= 351.0

c_u_x866_:
+1 x327
<= 351.0

c_u_x867_:
+1 x330
<= 351.0

c_u_x868_:
+1 x333
<= 351.0

c_u_x869_:
+1 x336
<= 351.0

c_u_x870_:
+1 x339
<= 351.0

c_u_x871_:
+1 x342
<= 351.0

c_u_x872_:
+1 x345
<= 351.0

c_u_x873_:
+1 x348
<= 351.0

c_u_x874_:
+1 x351
<= 351.0

c_u_x875_:
+1 x354
<= 351.0

c_u_x876_:
+1 x357
<= 351.0

c_u_x877_:
+1 x360
<= 351.0

c_u_x878_:
+1 x363
<= 351.0

c_u_x879_:
+1 x366
<= 351.0

c_u_x880_:
+1 x369
<= 351.0

c_u_x881_:
+1 x372
<= 351.0

c_u_x882_:
+1 x375
<= 351.0

c_u_x883_:
+1 x378
<= 351.0

c_u_x884_:
+1 x381
<= 351.0

c_u_x885_:
+1 x384
<= 351.0

c_u_x886_:
+1 x387
<= 200.0

c_u_x887_:
+1 x389
<= 200.0

c_u_x888_:
+1 x391
<= 200.0

c_u_x889_:
+1 x393
<= 200.0

c_u_x890_:
+1 x395
<= 200.0

c_u_x891_:
+1 x397
<= 200.0

c_u_x892_:
+1 x399
<= 200.0

c_u_x893_:
+1 x401
<= 200.0

c_u_x894_:
+1 x403
<= 200.0

c_u_x895_:
+1 x405
<= 200.0

c_u_x896_:
+1 x407
<= 200.0

c_u_x897_:
+1 x409
<= 200.0

c_u_x898_:
+1 x411
<= 200.0

c_u_x899_:
+1 x413
<= 200.0

c_u_x900_:
+1 x415
<= 200.0

c_u_x901_:
+1 x417
<= 200.0

c_u_x902_:
+1 x419
<= 200.0

c_u_x903_:
+1 x421
<= 200.0

c_u_x904_:
+1 x423
<= 200.0

c_u_x905_:
+1 x425
<= 200.0

c_u_x906_:
+1 x427
<= 200.0

c_u_x907_:
+1 x429
<= 200.0

c_u_x908_:
+1 x431
<= 200.0

c_u_x909_:
+1 x433
<= 200.0

c_u_x910_:
+1 x435
<= 200.0

c_l_x911_:
+1 x387
>= 0

c_l_x912_:
+1 x389
>= 0

c_l_x913_:
+1 x391
>= 0

c_l_x914_:
+1 x393
>= 0

c_l_x915_:
+1 x395
>= 0

c_l_x916_:
+1 x397
>= 0

c_l_x917_:
+1 x399
>= 0

c_l_x918_:
+1 x401
>= 0

c_l_x919_:
+1 x403
>= 0

c_l_x920_:
+1 x405
>= 0

c_l_x921_:
+1 x407
>= 0

c_l_x922_:
+1 x409
>= 0

c_l_x923_:
+1 x411
>= 0

c_l_x924_:
+1 x413
>= 0

c_l_x925_:
+1 x415
>= 0

c_l_x926_:
+1 x417
>= 0

c_l_x927_:
+1 x419
>= 0

c_l_x928_:
+1 x421
>= 0

c_l_x929_:
+1 x423
>= 0

c_l_x930_:
+1 x425
>= 0

c_l_x931_:
+1 x427
>= 0

c_l_x932_:
+1 x429
>= 0

c_l_x933_:
+1 x431
>= 0

c_l_x934_:
+1 x433
>= 0

c_l_x935_:
+1 x435
>= 0

bounds
   0 <= x2 <= +1e30
   0 <= x3 <= +1e30
   0 <= x4 <= +1e30
   0 <= x5 <= +1e30
   0 <= x6 <= +1e30
   0 <= x7 <= +1e30
   0 <= x8 <= +1e30
   0 <= x9 <= +1e30
   0 <= x10 <= +1e30
   0 <= x11 <= +1e30
   0 <= x12 <= +1e30
   0 <= x13 <= +1e30
   0 <= x14 <= +1e30
   0 <= x15 <= +1e30
   0 <= x16 <= +1e30
   0 <= x17 <= +1e30
   0 <= x18 <= +1e30
   0 <= x19 <= +1e30
   0 <= x20 <= +1e30
   0 <= x21 <= +1e30
   0 <= x22 <= +1e30
   0 <= x23 <= +1e30
   0 <= x24 <= +1e30
   0 <= x25 <= +1e30
   0 <= x26 <= +1e30
   0 <= x27 <= +1e30
   0 <= x28 <= +1e30
   0 <= x29 <= +1e30
   0 <= x30 <= +1e30
   0 <= x31 <= +1e30
   0 <= x32 <= +1e30
   0 <= x33 <= +1e30
   0 <= x34 <= +1e30
   0 <= x35 <= +1e30
   0 <= x36 <= +1e30
   0 <= x37 <= +1e30
   0 <= x38 <= +1e30
   0 <= x39 <= +1e30
   0 <= x40 <= +1e30
   0 <= x41 <= +1e30
   0 <= x42 <= +1e30
   0 <= x43 <= +1e30
   0 <= x44 <= +1e30
   0 <= x45 <= +1e30
   0 <= x46 <= +1e30
   0 <= x47 <= +1e30
   0 <= x48 <= +1e30
   0 <= x49 <= +1e30
   0 <= x50 <= +1e30
   0 <= x51 <= +1e30
   0 <= x52 <= 1
   0 <= x53 <= 1
   0 <= x54 <= 1
   0 <= x55 <= 1
   0 <= x56 <= 1
   0 <= x57 <= 1
   0 <= x58 <= 1
   0 <= x59 <= 1
   0 <= x60 <= 1
   0 <= x61 <= 1
   0 <= x62 <= 1
   0 <= x63 <= 1
   0 <= x64 <= 1
   0 <= x65 <= 1
   0 <= x66 <= 1
   0 <= x67 <= 1
   0 <= x68 <= 1
   0 <= x69 <= 1
   0 <= x70 <= 1
   0 <= x71 <= 1
   0 <= x72 <= 1
   0 <= x73 <= 1
   0 <= x74 <= 1
   0 <= x75 <= 1
   0 <= x76 <= 1
   0 <= x77 <= 1
   0 <= x78 <= 1
   0 <= x79 <= 1
   0 <= x80 <= 1
   0 <= x81 <= 1
   0 <= x82 <= 1
   0 <= x83 <= 1
   0 <= x84 <= 1
   0 <= x85 <= 1
   0 <= x86 <= 1
   0 <= x87 <= 1
   0 <= x88 <= 1
   0 <= x89 <= 1
   0 <= x90 <= 1
   0 <= x91 <= 1
   0 <= x92 <= 1
   0 <= x94 <= 1
   0 <= x95 <= 1
   0 <= x96 <= 1
   0 <= x98 <= 1
   0 <= x99 <= 1
   0 <= x101 <= 1
   0 <= x102 <= 1
   0 <= x104 <= 1
   0 <= x105 <= 1
   0 <= x107 <= 1
   0 <= x108 <= 1
   0 <= x110 <= 1
   0 <= x111 <= 1
   0 <= x113 <= 1
   0 <= x114 <= 1
   0 <= x116 <= 1
   0 <= x117 <= 1
   0 <= x119 <= 1
   0 <= x120 <= 1
   0 <= x122 <= 1
   0 <= x123 <= 1
   0 <= x125 <= 1
   0 <= x126 <= 1
   0 <= x128 <= 1
   0 <= x129 <= 1
   0 <= x131 <= 1
   0 <= x132 <= 1
   0 <= x134 <= 1
   0 <= x135 <= 1
   0 <= x137 <= 1
   0 <= x138 <= 1
   0 <= x140 <= 1
   0 <= x141 <= 1
   0 <= x143 <= 1
   0 <= x144 <= 1
   0 <= x146 <= 1
   0 <= x147 <= 1
   0 <= x149 <= 1
   0 <= x150 <= 1
   0 <= x152 <= 1
   0 <= x153 <= 1
   0 <= x155 <= 1
   0 <= x156 <= 1
   0 <= x158 <= 1
   0 <= x159 <= 1
   0 <= x161 <= 1
   0 <= x162 <= 1
   0 <= x164 <= 1
   0 <= x165 <= 1
   0 <= x167 <= 1
   0 <= x169 <= 1
   0 <= x170 <= 1
   0 <= x172 <= 1
   0 <= x173 <= 1
   0 <= x175 <= 1
   0 <= x176 <= 1
   0 <= x178 <= 1
   0 <= x179 <= 1
   0 <= x181 <= 1
   0 <= x182 <= 1
   0 <= x184 <= 1
   0 <= x185 <= 1
   0 <= x187 <= 1
   0 <= x188 <= 1
   0 <= x190 <= 1
   0 <= x191 <= 1
   0 <= x193 <= 1
   0 <= x194 <= 1
   0 <= x196 <= 1
   0 <= x197 <= 1
   0 <= x199 <= 1
   0 <= x200 <= 1
   0 <= x202 <= 1
   0 <= x203 <= 1
   0 <= x205 <= 1
   0 <= x206 <= 1
   0 <= x208 <= 1
   0 <= x209 <= 1
   0 <= x211 <= 1
   0 <= x212 <= 1
   0 <= x214 <= 1
   0 <= x215 <= 1
   0 <= x217 <= 1
   0 <= x218 <= 1
   0 <= x220 <= 1
   0 <= x221 <= 1
   0 <= x223 <= 1
   0 <= x224 <= 1
   0 <= x226 <= 1
   0 <= x227 <= 1
   0 <= x229 <= 1
   0 <= x230 <= 1
   0 <= x232 <= 1
   0 <= x234 <= 1
   0 <= x237 <= +1e30
   0 <= x238 <= +1e30
   0 <= x240 <= +1e30
   0 <= x241 <= +1e30
   0 <= x243 <= +1e30
   0 <= x244 <= +1e30
   0 <= x246 <= +1e30
   0 <= x247 <= +1e30
   0 <= x249 <= +1e30
   0 <= x250 <= +1e30
   0 <= x252 <= +1e30
   0 <= x253 <= +1e30
   0 <= x255 <= +1e30
   0 <= x256 <= +1e30
   0 <= x258 <= +1e30
   0 <= x259 <= +1e30
   0 <= x261 <= +1e30
   0 <= x262 <= +1e30
   0 <= x264 <= +1e30
   0 <= x265 <= +1e30
   0 <= x267 <= +1e30
   0 <= x268 <= +1e30
   0 <= x270 <= +1e30
   0 <= x271 <= +1e30
   0 <= x273 <= +1e30
   0 <= x274 <= +1e30
   0 <= x276 <= +1e30
   0 <= x277 <= +1e30
   0 <= x279 <= +1e30
   0 <= x280 <= +1e30
   0 <= x282 <= +1e30
   0 <= x283 <= +1e30
   0 <= x285 <= +1e30
   0 <= x286 <= +1e30
   0 <= x288 <= +1e30
   0 <= x289 <= +1e30
   0 <= x291 <= +1e30
   0 <= x292 <= +1e30
   0 <= x294 <= +1e30
   0 <= x295 <= +1e30
   0 <= x297 <= +1e30
   0 <= x298 <= +1e30
   0 <= x300 <= +1e30
   0 <= x301 <= +1e30
   0 <= x303 <= +1e30
   0 <= x304 <= +1e30
   0 <= x306 <= +1e30
   0 <= x307 <= +1e30
   0 <= x309 <= +1e30
   0 <= x310 <= +1e30
   0 <= x312 <= +1e30
   0 <= x313 <= +1e30
   0 <= x315 <= +1e30
   0 <= x316 <= +1e30
   0 <= x318 <= +1e30
   0 <= x319 <= +1e30
   0 <= x321 <= +1e30
   0 <= x322 <= +1e30
   0 <= x324 <= +1e30
   0 <= x325 <= +1e30
   0 <= x327 <= +1e30
   0 <= x328 <= +1e30
   0 <= x330 <= +1e30
   0 <= x331 <= +1e30
   0 <= x333 <= +1e30
   0 <= x334 <= +1e30
   0 <= x336 <= +1e30
   0 <= x337 <= +1e30
   0 <= x339 <= +1e30
   0 <= x340 <= +1e30
   0 <= x342 <= +1e30
   0 <= x343 <= +1e30
   0 <= x345 <= +1e30
   0 <= x346 <= +1e30
   0 <= x348 <= +1e30
   0 <= x349 <= +1e30
   0 <= x351 <= +1e30
   0 <= x352 <= +1e30
   0 <= x354 <= +1e30
   0 <= x355 <= +1e30
   0 <= x357 <= +1e30
   0 <= x358 <= +1e30
   0 <= x360 <= +1e30
   0 <= x361 <= +1e30
   0 <= x363 <= +1e30
   0 <= x364 <= +1e30
   0 <= x366 <= +1e30
   0 <= x367 <= +1e30
   0 <= x369 <= +1e30
   0 <= x370 <= +1e30
   0 <= x372 <= +1e30
   0 <= x373 <= +1e30
   0 <= x375 <= +1e30
   0 <= x376 <= +1e30
   0 <= x378 <= +1e30
   0 <= x379 <= +1e30
   0 <= x381 <= +1e30
   0 <= x382 <= +1e30
   0 <= x384 <= +1e30
   0 <= x385 <= +1e30
   0 <= x387 <= +1e30
   0 <= x389 <= +1e30
   0 <= x391 <= +1e30
   0 <= x393 <= +1e30
   0 <= x395 <= +1e30
   0 <= x397 <= +1e30
   0 <= x399 <= +1e30
   0 <= x401 <= +1e30
   0 <= x403 <= +1e30
   0 <= x405 <= +1e30
   0 <= x407 <= +1e30
   0 <= x409 <= +1e30
   0 <= x411 <= +1e30
   0 <= x413 <= +1e30
   0 <= x415 <= +1e30
   0 <= x417 <= +1e30
   0 <= x419 <= +1e30
   0 <= x421 <= +1e30
   0 <= x423 <= +1e30
   0 <= x425 <= +1e30
   0 <= x427 <= +1e30
   0 <= x429 <= +1e30
   0 <= x431 <= +1e30
   0 <= x433 <= +1e30
   0 <= x435 <= +1e30
   0 <= x437 <= 1
   0 <= x439 <= 1
   0 <= x441 <= 1
   0 <= x443 <= 1
   0 <= x445 <= 1
   0 <= x447 <= 1
   0 <= x449 <= 1
   0 <= x451 <= 1
   0 <= x453 <= 1
   0 <= x455 <= 1
   0 <= x457 <= 1
   0 <= x459 <= 1
   0 <= x461 <= 1
   0 <= x463 <= 1
   0 <= x465 <= 1
   0 <= x467 <= 1
   0 <= x469 <= 1
   0 <= x471 <= 1
   0 <= x473 <= 1
   0 <= x475 <= 1
   0 <= x477 <= 1
   0 <= x479 <= 1
   0 <= x481 <= 1
   0 <= x483 <= 1
   0 <= x485 <= 1
   0 <= x487 <= 1
   0 <= x489 <= 1
   0 <= x491 <= 1
   0 <= x493 <= 1
   0 <= x495 <= 1
   0 <= x497 <= 1
   0 <= x499 <= 1
   0 <= x501 <= 1
   0 <= x503 <= 1
   0 <= x505 <= 1
   0 <= x507 <= 1
   0 <= x509 <= 1
   0 <= x511 <= 1
   0 <= x513 <= 1
   0 <= x515 <= 1
   0 <= x517 <= 1
   0 <= x519 <= 1
   0 <= x521 <= 1
   0 <= x523 <= 1
   0 <= x525 <= 1
   0 <= x527 <= 1
   0 <= x529 <= 1
   0 <= x531 <= 1
   0 <= x533 <= 1
   0 <= x535 <= 1
binary
  x52
  x53
  x54
  x55
  x56
  x57
  x58
  x59
  x60
  x61
  x62
  x63
  x64
  x65
  x66
  x67
  x68
  x69
  x70
  x71
  x72
  x73
  x74
  x75
  x76
  x77
  x78
  x79
  x80
  x81
  x82
  x83
  x84
  x85
  x86
  x87
  x88
  x89
  x90
  x91
  x92
  x94
  x95
  x96
  x98
  x99
  x101
  x102
  x104
  x105
  x107
  x108
  x110
  x111
  x113
  x114
  x116
  x117
  x119
  x120
  x122
  x123
  x125
  x126
  x128
  x129
  x131
  x132
  x134
  x135
  x137
  x138
  x140
  x141
  x143
  x144
  x146
  x147
  x149
  x150
  x152
  x153
  x155
  x156
  x158
  x159
  x161
  x162
  x164
  x165
  x167
  x169
  x170
  x172
  x173
  x175
  x176
  x178
  x179
  x181
  x182
  x184
  x185
  x187
  x188
  x190
  x191
  x193
  x194
  x196
  x197
  x199
  x200
  x202
  x203
  x205
  x206
  x208
  x209
  x211
  x212
  x214
  x215
  x217
  x218
  x220
  x221
  x223
  x224
  x226
  x227
  x229
  x230
  x232
  x234
  x437
  x439
  x441
  x443
  x445
  x447
  x449
  x451
  x453
  x455
  x457
  x459
  x461
  x463
  x465
  x467
  x469
  x471
  x473
  x475
  x477
  x479
  x481
  x483
  x485
  x487
  x489
  x491
  x493
  x495
  x497
  x499
  x501
  x503
  x505
  x507
  x509
  x511
  x513
  x515
  x517
  x519
  x521
  x523
  x525
  x527
  x529
  x531
  x533
  x535
end
